(set-logic QF_BV)
(define-fun implies ((p Bool) (q Bool)) Bool (or (not p) q))

(declare-const xtext Bool)
(declare-const Grammar Bool)
(declare-const EMFmodel Bool)
(declare-const SemanticModel Bool)
(declare-const Editor Bool)
(declare-const Id Bool)
(declare-const Name Bool)
(declare-const Icon Bool)
(declare-const extensions Bool)
(declare-const class Bool)
(declare-const command Bool)
(declare-const launcher Bool)
(declare-const contributorClass Bool)
(declare-const default Bool)
(declare-const filenames Bool)
(declare-const symbolicFontName Bool)
(declare-const matchingStrategy Bool)
(declare-const contentTypeBinding Bool)
(declare-const contentTypeId Bool)
(declare-const Handlers Bool)
(declare-const handler Bool)
(declare-const commandId Bool)
(declare-const class_1 Bool)
(declare-const helpContextId Bool)
(declare-const PreferencePages Bool)
(declare-const id Bool)
(declare-const name Bool)
(declare-const page Bool)
(declare-const id_1 Bool)
(declare-const name_1 Bool)
(declare-const class_2 Bool)
(declare-const category Bool)
(declare-const Keywords Bool)
(declare-const id_2 Bool)
(declare-const label Bool)
(declare-const keyword Bool)
(declare-const id_3 Bool)
(declare-const label_1 Bool)
(declare-const Commands Bool)
(declare-const id_4 Bool)
(declare-const name_2 Bool)
(declare-const category_1 Bool)
(declare-const id_5 Bool)
(declare-const name_3 Bool)
(declare-const description Bool)
(declare-const command_1 Bool)
(declare-const id_6 Bool)
(declare-const name_4 Bool)
(declare-const description_1 Bool)
(declare-const categoryId Bool)
(declare-const defaultHandler Bool)
(declare-const returnTypeId Bool)
(declare-const helpContextId_1 Bool)
(declare-const commandParameter Bool)
(declare-const id_7 Bool)
(declare-const name_6 Bool)
(declare-const values Bool)
(declare-const class_3 Bool)
(declare-const parameter Bool)
(declare-const name_5 Bool)
(declare-const value Bool)
(declare-const typeId Bool)
(declare-const state Bool)
(declare-const id_8 Bool)
(declare-const class_4 Bool)
(declare-const class_5 Bool)
(declare-const parameter_1 Bool)
(declare-const name_7 Bool)
(declare-const value_1 Bool)
(declare-const commandParameterType Bool)
(declare-const id_9 Bool)
(declare-const type Bool)
(declare-const converter Bool)
(declare-const Menus Bool)
(declare-const menuContribution Bool)
(declare-const locationURI Bool)
(declare-const class_6 Bool)
(declare-const allPopups Bool)
(declare-const command_2 Bool)
(declare-const parameter_2 Bool)
(declare-const control Bool)
(declare-const dynamic Bool)
(declare-const menu Bool)
(declare-const label_2 Bool)
(declare-const id_10 Bool)
(declare-const icon Bool)
(declare-const tooltip Bool)
(declare-const commandId_1 Bool)
(declare-const separator Bool)
(declare-const toolbar Bool)
(declare-const id_11 Bool)
(declare-const name_8 Bool)
(declare-const EMFEcoreExtensionParser Bool)
(declare-const id_12 Bool)
(declare-const name_9 Bool)
(declare-const parser Bool)
(declare-const type_1 Bool)
(declare-const class_7 Bool)
(declare-const ExtensionResourceServiceProvider Bool)
(declare-const resourceServiceProvider Bool)
(declare-const uriExtension Bool)
(declare-const class_8 Bool)
(declare-const id_13 Bool)
(declare-const name_10 Bool)
(declare-const IDEMarkerResolution Bool)
(declare-const id_14 Bool)
(declare-const name_11 Bool)
(declare-const markerResolutionGenerator Bool)
(declare-const class_9 Bool)
(declare-const markerType Bool)
(declare-const NewWizards Bool)
(declare-const id_15 Bool)
(declare-const name_12 Bool)
(declare-const category_2 Bool)
(declare-const id_16 Bool)
(declare-const name_13 Bool)
(declare-const parentCategory Bool)
(declare-const primaryWizard Bool)
(declare-const id_17 Bool)
(declare-const wizard Bool)
(declare-const id_18 Bool)
(declare-const name_14 Bool)
(declare-const class_10 Bool)
(declare-const icon_1 Bool)
(declare-const category_3 Bool)
(declare-const project Bool)
(declare-const finalPerspective Bool)
(declare-const preferredPerspectives Bool)
(declare-const helpHref Bool)
(declare-const descriptionImage Bool)
(declare-const canFinishEarly Bool)
(declare-const hasPages Bool)
(declare-const description_2 Bool)
(declare-const keywordReference Bool)
(declare-const selection Bool)
(declare-const class_11 Bool)
(declare-const name_15 Bool)
(assert
(and xtext(and(= Id Editor)
(= Name Editor)
(= contentTypeId contentTypeBinding)
(and(implies Icon Editor)
(implies extensions Editor)
(implies class Editor)
(implies command Editor)
(implies launcher Editor)
(implies contributorClass Editor)
(implies default Editor)
(implies filenames Editor)
(implies symbolicFontName Editor)
(implies matchingStrategy Editor)
(implies contentTypeBinding Editor))
(and(= Grammar xtext)
(= EMFmodel xtext)
(= SemanticModel xtext)
(= Editor xtext))
(= commandId handler)
(and(implies class_1 handler)
(implies helpContextId handler))
(implies handler Handlers)
(and(= id_1 page)
(= name_1 page)
(= class_2 page))
(implies category page)
(and(implies id PreferencePages)
(implies name PreferencePages)
(implies page PreferencePages))
(and(= id_3 keyword)
(= label_1 keyword))
(and(implies id_2 Keywords)
(implies label Keywords)
(implies keyword Keywords))
(and(= id_5 category_1)
(= name_3 category_1))
(implies description category_1)
(and(= id_6 command_1)
(= name_4 command_1))
(and(= id_7 commandParameter)
(= name_6 commandParameter))
(= class_3 values)
(and(= name_5 parameter)
(= value parameter))
(implies parameter values)
(and(implies values commandParameter)
(implies typeId commandParameter))
(= id_8 state)
(and(= name_7 parameter_1)
(= value_1 parameter_1))
(implies parameter_1 class_5)
(= class_5 class_4)
(implies class_4 state)
(and(implies description_1 command_1)
(implies categoryId command_1)
(implies defaultHandler command_1)
(implies returnTypeId command_1)
(implies helpContextId_1 command_1)
(implies commandParameter command_1)
(implies state command_1))
(= id_9 commandParameterType)
(and(implies type commandParameterType)
(implies converter commandParameterType))
(and(implies id_4 Commands)
(implies name_2 Commands)
(implies category_1 Commands)
(implies command_1 Commands)
(implies commandParameterType Commands))
(= locationURI menuContribution)
(implies parameter_2 command_2)
(= label_2 menu)
(and(implies id_10 menu)
(implies icon menu)
(implies tooltip menu)
(implies commandId_1 menu))
(and(implies class_6 menuContribution)
(implies allPopups menuContribution)
(implies command_2 menuContribution)
(implies control menuContribution)
(implies dynamic menuContribution)
(implies menu menuContribution)
(implies separator menuContribution)
(implies toolbar menuContribution))
(and(implies menuContribution Menus)
(implies id_11 Menus)
(implies name_8 Menus))
(and(= type_1 parser)
(= class_7 parser))
(and(implies id_12 EMFEcoreExtensionParser)
(implies name_9 EMFEcoreExtensionParser)
(implies parser EMFEcoreExtensionParser))
(and(= uriExtension resourceServiceProvider)
(= class_8 resourceServiceProvider))
(and(implies resourceServiceProvider ExtensionResourceServiceProvider)
(implies id_13 ExtensionResourceServiceProvider)
(implies name_10 ExtensionResourceServiceProvider))
(= class_9 markerResolutionGenerator)
(implies markerType markerResolutionGenerator)
(and(implies id_14 IDEMarkerResolution)
(implies name_11 IDEMarkerResolution)
(implies markerResolutionGenerator IDEMarkerResolution))
(and(= id_16 category_2)
(= name_13 category_2))
(implies parentCategory category_2)
(= id_17 primaryWizard)
(and(= id_18 wizard)
(= name_14 wizard)
(= class_10 wizard))
(= class_11 selection)
(implies name_15 selection)
(and(implies icon_1 wizard)
(implies category_3 wizard)
(implies project wizard)
(implies finalPerspective wizard)
(implies preferredPerspectives wizard)
(implies helpHref wizard)
(implies descriptionImage wizard)
(implies canFinishEarly wizard)
(implies hasPages wizard)
(implies description_2 wizard)
(implies keywordReference wizard)
(implies selection wizard))
(and(implies id_15 NewWizards)
(implies name_12 NewWizards)
(implies category_2 NewWizards)
(implies primaryWizard NewWizards)
(implies wizard NewWizards))
(and(implies Handlers xtext)
(implies PreferencePages xtext)
(implies Keywords xtext)
(implies Commands xtext)
(implies Menus xtext)
(implies EMFEcoreExtensionParser xtext)
(implies ExtensionResourceServiceProvider xtext)
(implies IDEMarkerResolution xtext)
(implies NewWizards xtext)))
(or Handlers(not Menus)))
)